RT is False
Default write of storage_offers_DA.csv just to have a file (but constraint should be inactive)
Reading model...
...model read.
creating competitive generators file...
...competitive generators recorded.
Loading data...
.. day-ahead data read.
Compiling instance...
...instance created.
Creating Offer Mitigation (model will solve as dispatch if TRUE)...
NOTE: storage offers will not be mitigated
...storage offer mitigation file created
Converting model to MPEC...
...converted
NOTE: initial MIP solve with only storage competitive to get feasible solution
Solving...

Welcome to IBM(R) ILOG(R) CPLEX(R) Interactive Optimizer 12.9.0.0
  with Simplex, Mixed Integer & Barrier Optimizers
5725-A06 5725-A29 5724-Y48 5724-Y49 5724-Y54 5724-Y55 5655-Y21
Copyright IBM Corp. 1988, 2019.  All Rights Reserved.

Type 'help' for a list of available commands.
Type 'help' followed by a command name for more
information on commands.

CPLEX> Logfile 'cplex.log' closed.
Logfile 'C:\Users\Luke\Desktop\test919\logs\tmp9yva0_2m.cplex.log' open.
CPLEX> New value for parallel optimization mode: -1
CPLEX> New value for mixed integer optimality gap tolerance: 0.01
CPLEX> New value for integrality tolerance: 1e-09
CPLEX> New value for feasibility tolerance: 0.01
CPLEX> New value for deterministic time limit in ticks: 75000
CPLEX> Problem 'C:\Users\Luke\Desktop\test919\logs\tmpap1d_jj1.pyomo.lp' read.
Read time = 0.20 sec. (14.73 ticks)
CPLEX> Problem name         : C:\Users\Luke\Desktop\test919\logs\tmpap1d_jj1.pyomo.lp
Objective sense      : Maximize
Variables            :   53805  [Nneg: 1,  Box: 22000,  Free: 4464,
                                 Binary: 27340]
Objective nonzeros   :    8974
Linear constraints   :  123205  [Less: 41346,  Greater: 59096,  Equal: 22763]
  Nonzeros           :  291795
  RHS nonzeros       :   67485

Variables            : Min LB: -5000.000        Max UB: 1000000.       
Objective nonzeros   : Min   : 0.1000000        Max   : 722.0000       
Linear constraints   :
  Nonzeros           : Min   : 0.1000000        Max   : 1000000.       
  RHS nonzeros       : Min   : 0.1000000        Max   : 1000000.       
CPLEX> CPXPARAM_Parallel                                -1
CPXPARAM_Simplex_Tolerances_Feasibility          0.01
CPXPARAM_DetTimeLimit                            75000
CPXPARAM_MIP_Tolerances_MIPGap                   0.01
CPXPARAM_MIP_Tolerances_Integrality              1.0000000000000001e-09
Tried aggregator 3 times.
MIP Presolve eliminated 88759 rows and 19085 columns.
MIP Presolve added 3390 rows and 0 columns.
MIP Presolve modified 24764 coefficients.
Aggregator did 12938 substitutions.
Reduced MIP has 24898 rows, 21252 columns, and 70918 nonzeros.
Reduced MIP has 8371 binaries, 0 generals, 0 SOSs, and 0 indicators.
Presolve time = 0.25 sec. (176.58 ticks)
Probing fixed 403 vars, tightened 2833 bounds.
Probing time = 1.30 sec. (882.59 ticks)
Tried aggregator 2 times.
MIP Presolve eliminated 913 rows and 807 columns.
MIP Presolve modified 2186 coefficients.
Aggregator did 46 substitutions.
Reduced MIP has 23939 rows, 20399 columns, and 68142 nonzeros.
Reduced MIP has 7968 binaries, 0 generals, 0 SOSs, and 0 indicators.
Presolve time = 0.09 sec. (72.53 ticks)
Probing time = 0.03 sec. (16.79 ticks)
Clique table members: 6161.
MIP emphasis: balance optimality and feasibility.
MIP search method: dynamic search.
Parallel mode: opportunistic, using up to 24 threads.
Root relaxation solution time = 0.33 sec. (273.68 ticks)

        Nodes                                         Cuts/
   Node  Left     Objective  IInf  Best Integer    Best Bound    ItCnt     Gap

      0     0      435.6478  2094                    435.6478     6402         
      0     0      428.6722   625                   Cuts: 969     6880         
      0     0      426.6683   460                   Cuts: 711     7147         
      0     0      424.5191   350                   Cuts: 445     7307         
      0     0      409.5134   302                   Cuts: 191     7375         
      0     0      408.0104   288                   Cuts: 128     7399         
      0     0      407.0933   286                    Cuts: 77     7413         
      0     0      406.5075   283                    Cuts: 54     7416         
      0     0      406.5075   283                    Cuts: 41     7416         
      0    10    infeasible                       Flowcuts: 1     7582         
Elapsed time = 8.75 sec. (6738.87 ticks, tree = 0.02 MB, solutions = 0)
    298    57      309.6408   255                    387.6199     8635         
    652   307   -28599.6078   263                    387.6199    13068         
   1045   435    infeasible                          387.6199    20096         
   1699   564     -501.5985   225                    387.6199    27057         
   2295   938      355.1163   229                    387.6199    31681         
   2857  1369      267.5729   181                    387.6199    35434         
   3450  2291      190.4773   161                    387.6199    39366         
   4103  2584     -213.9306   230                    387.6199    39965         
   4956  3367      305.1934   130                    387.6199    40193         
   7120  6039      345.0448   132                    387.6199    42813         
Elapsed time = 17.55 sec. (9844.47 ticks, tree = 149.23 MB, solutions = 0)
*  7207+  574                          375.9101      387.6199             3.12%
   8689   536      382.7300    84      375.9101      387.6199    63929    3.12%
  10597  1136      382.7300    67      375.9101      387.6199    71287    3.12%

GUB cover cuts applied:  1
Clique cuts applied:  9
Cover cuts applied:  5
Implied bound cuts applied:  38
Flow cuts applied:  121
Mixed integer rounding cuts applied:  39
Gomory fractional cuts applied:  31

Root node processing (before b&c):
  Real time             =    8.36 sec. (6728.71 ticks)
Parallel b&c, 24 threads:
  Real time             =   16.55 sec. (6544.21 ticks)
  Sync time (average)   =    0.27 sec.
  Wait time (average)   =    0.00 sec.
                          ------------
Total (root+branch&cut) =   24.91 sec. (13272.92 ticks)

Solution pool: 1 solution saved.

MIP - Integer optimal, tolerance (0.01/1e-06):  Objective =  3.7591009061e+02
Current MIP best bound =  3.7924325570e+02 (gap = 3.33317, 0.89%)
Solution time =   24.91 sec.  Iterations = 78710  Nodes = 10603 (2094)
Deterministic time = 13273.08 ticks  (532.93 ticks/sec)

CPLEX> Incumbent solution written to file 'C:\Users\Luke\Desktop\test919\logs\tmp62_37rpu.cplex.sol'.
CPLEX> NOTE: no warmstart specified for MIP iteration, default behavior is true
NOTE: resolving with all competitive generators using storage-only solution to warmstart
Solving...

Welcome to IBM(R) ILOG(R) CPLEX(R) Interactive Optimizer 12.9.0.0
  with Simplex, Mixed Integer & Barrier Optimizers
5725-A06 5725-A29 5724-Y48 5724-Y49 5724-Y54 5724-Y55 5655-Y21
Copyright IBM Corp. 1988, 2019.  All Rights Reserved.

Type 'help' for a list of available commands.
Type 'help' followed by a command name for more
information on commands.

CPLEX> Logfile 'cplex.log' closed.
Logfile 'C:\Users\Luke\Desktop\test919\logs\tmp0o0f540j.cplex.log' open.
CPLEX> New value for parallel optimization mode: -1
CPLEX> New value for mixed integer optimality gap tolerance: 0.01
CPLEX> New value for integrality tolerance: 1e-09
CPLEX> New value for feasibility tolerance: 0.01
CPLEX> New value for deterministic time limit in ticks: 75000
CPLEX> Problem 'C:\Users\Luke\Desktop\test919\logs\tmpt2dkqusq.pyomo.lp' read.
Read time = 0.20 sec. (14.75 ticks)
CPLEX> MIP start file 'C:\Users\Luke\Desktop\test919\logs\tmprg6rnipu.cplex.mst' read.
CPLEX> Problem name         : C:\Users\Luke\Desktop\test919\logs\tmpt2dkqusq.pyomo.lp
Objective sense      : Maximize
Variables            :   54525  [Nneg: 1,  Box: 22720,  Free: 4464,
                                 Binary: 27340]
Objective nonzeros   :    9694
Linear constraints   :  123205  [Less: 41346,  Greater: 59096,  Equal: 22763]
  Nonzeros           :  291795
  RHS nonzeros       :   67485

Variables            : Min LB: -5000.000        Max UB: 1000000.       
Objective nonzeros   : Min   : 0.1000000        Max   : 722.0000       
Linear constraints   :
  Nonzeros           : Min   : 0.1000000        Max   : 1000000.       
  RHS nonzeros       : Min   : 0.1000000        Max   : 1000000.       
CPLEX> CPXPARAM_Parallel                                -1
CPXPARAM_Simplex_Tolerances_Feasibility          0.01
CPXPARAM_DetTimeLimit                            75000
CPXPARAM_MIP_Tolerances_MIPGap                   0.01
CPXPARAM_MIP_Tolerances_Integrality              1.0000000000000001e-09
Warning:  No solution found from 1 MIP starts.
Retaining values of one MIP start for possible repair.
Tried aggregator 3 times.
MIP Presolve eliminated 88759 rows and 19805 columns.
MIP Presolve added 3390 rows and 0 columns.
MIP Presolve modified 24764 coefficients.
Aggregator did 12938 substitutions.
Reduced MIP has 24898 rows, 21252 columns, and 70918 nonzeros.
Reduced MIP has 8371 binaries, 0 generals, 0 SOSs, and 0 indicators.
Presolve time = 0.22 sec. (176.95 ticks)
Probing fixed 403 vars, tightened 2833 bounds.
Probing time = 1.30 sec. (882.59 ticks)
Tried aggregator 2 times.
MIP Presolve eliminated 913 rows and 807 columns.
MIP Presolve modified 2186 coefficients.
Aggregator did 46 substitutions.
Reduced MIP has 23939 rows, 20399 columns, and 68142 nonzeros.
Reduced MIP has 7968 binaries, 0 generals, 0 SOSs, and 0 indicators.
Presolve time = 0.09 sec. (72.53 ticks)
Probing time = 0.03 sec. (16.79 ticks)
Clique table members: 6161.
MIP emphasis: balance optimality and feasibility.
MIP search method: dynamic search.
Parallel mode: opportunistic, using up to 24 threads.
Root relaxation solution time = 0.33 sec. (273.68 ticks)

        Nodes                                         Cuts/
   Node  Left     Objective  IInf  Best Integer    Best Bound    ItCnt     Gap

      0     0      435.6478  2094                    435.6478     6402         
      0     0      428.6722   625                   Cuts: 969     6880         
      0     0      426.6683   460                   Cuts: 711     7147         
      0     0      424.5191   350                   Cuts: 445     7307         
      0     0      409.5134   302                   Cuts: 191     7375         
      0     0      408.0104   288                   Cuts: 128     7399         
      0     0      406.5075   283                    Cuts: 79     7409         
      0     0      406.5075   283                    Cuts: 53     7411         
      0     0      406.5075   283                    Cuts: 41     7411         
Repair heuristic found nothing.
      0    10    infeasible                          402.1479     7656         
Elapsed time = 8.81 sec. (6766.58 ticks, tree = 0.02 MB, solutions = 0)
    321    78    infeasible                          396.0442     8653         
    735   158      330.8441   271                    396.0442    11871         
   1117   367      362.3632   250                    396.0442    28426         
   1833   693      362.3632   234                    396.0442    38331         
   2497  1156      254.0416   229                    396.0442    41437         
   3251  1608      199.0798   198                    396.0442    43162         
   3955  2407      380.6385   206                    396.0442    45139         
   4648  2826      249.1517   208                    396.0442    45198         
   5356  3812      315.6982   163                    396.0442    45365         
*  6496+ 5086                        -1345.1166      396.0442           129.44%
Elapsed time = 16.31 sec. (9363.33 ticks, tree = 55.75 MB, solutions = 1)
   7560  5621     -641.2671   138    -1345.1166      396.0442    49055  129.44%
   7566  5952        cutoff          -1345.1166      396.0442    74060  129.44%
   9127   135      327.9454    51    -1345.1166      391.9199    74763  129.14%
   9551   746    -1242.3364    37    -1345.1166      389.1993    78580  128.93%
  10784  1792      -31.2619    45    -1345.1166      389.1993    84585  128.93%
* 11564  1834      integral     0      380.5721      389.1993    85359    2.27%
  12467   417      380.9708    35      380.5721      389.1993    96285    2.27%
  13306  2735    -1292.1533    25      380.5721      389.1993    93181    2.27%

GUB cover cuts applied:  4
Clique cuts applied:  55
Cover cuts applied:  18
Implied bound cuts applied:  153
Flow cuts applied:  792
Mixed integer rounding cuts applied:  88
Gomory fractional cuts applied:  108

Root node processing (before b&c):
  Real time             =    8.48 sec. (6758.85 ticks)
Parallel b&c, 24 threads:
  Real time             =   30.34 sec. (14975.57 ticks)
  Sync time (average)   =    2.45 sec.
  Wait time (average)   =    0.08 sec.
                          ------------
Total (root+branch&cut) =   38.83 sec. (21734.42 ticks)

Solution pool: 2 solutions saved.

MIP - Integer optimal, tolerance (0.01/1e-06):  Objective =  3.8057214473e+02
Current MIP best bound =  3.8432471605e+02 (gap = 3.75257, 0.99%)
Solution time =   38.84 sec.  Iterations = 108361  Nodes = 13501 (213)
Deterministic time = 21734.58 ticks  (559.54 ticks/sec)

CPLEX> Incumbent solution written to file 'C:\Users\Luke\Desktop\test919\logs\tmpecrfnboj.cplex.sol'.
CPLEX> Exporting results... 
